c CNF file corresponding to a (partial) station packing problem.
p cnf 2259 229
2243 2244 2245 2246 2247 2248 2249 2250 2251 2252 2253 2254 2255 2256 2257 2258 2259 0
-2243 -2244 0
-2243 -2245 0
-2243 -2246 0
-2243 -2247 0
-2243 -2248 0
-2243 -2249 0
-2243 -2250 0
-2243 -2251 0
-2243 -2252 0
-2243 -2253 0
-2243 -2254 0
-2243 -2255 0
-2243 -2256 0
-2243 -2257 0
-2243 -2258 0
-2243 -2259 0
-2244 -2245 0
-2244 -2246 0
-2244 -2247 0
-2244 -2248 0
-2244 -2249 0
-2244 -2250 0
-2244 -2251 0
-2244 -2252 0
-2244 -2253 0
-2244 -2254 0
-2244 -2255 0
-2244 -2256 0
-2244 -2257 0
-2244 -2258 0
-2244 -2259 0
-2245 -2246 0
-2245 -2247 0
-2245 -2248 0
-2245 -2249 0
-2245 -2250 0
-2245 -2251 0
-2245 -2252 0
-2245 -2253 0
-2245 -2254 0
-2245 -2255 0
-2245 -2256 0
-2245 -2257 0
-2245 -2258 0
-2245 -2259 0
-2246 -2247 0
-2246 -2248 0
-2246 -2249 0
-2246 -2250 0
-2246 -2251 0
-2246 -2252 0
-2246 -2253 0
-2246 -2254 0
-2246 -2255 0
-2246 -2256 0
-2246 -2257 0
-2246 -2258 0
-2246 -2259 0
-2247 -2248 0
-2247 -2249 0
-2247 -2250 0
-2247 -2251 0
-2247 -2252 0
-2247 -2253 0
-2247 -2254 0
-2247 -2255 0
-2247 -2256 0
-2247 -2257 0
-2247 -2258 0
-2247 -2259 0
-2248 -2249 0
-2248 -2250 0
-2248 -2251 0
-2248 -2252 0
-2248 -2253 0
-2248 -2254 0
-2248 -2255 0
-2248 -2256 0
-2248 -2257 0
-2248 -2258 0
-2248 -2259 0
-2249 -2250 0
-2249 -2251 0
-2249 -2252 0
-2249 -2253 0
-2249 -2254 0
-2249 -2255 0
-2249 -2256 0
-2249 -2257 0
-2249 -2258 0
-2249 -2259 0
-2250 -2251 0
-2250 -2252 0
-2250 -2253 0
-2250 -2254 0
-2250 -2255 0
-2250 -2256 0
-2250 -2257 0
-2250 -2258 0
-2250 -2259 0
-2251 -2252 0
-2251 -2253 0
-2251 -2254 0
-2251 -2255 0
-2251 -2256 0
-2251 -2257 0
-2251 -2258 0
-2251 -2259 0
-2252 -2253 0
-2252 -2254 0
-2252 -2255 0
-2252 -2256 0
-2252 -2257 0
-2252 -2258 0
-2252 -2259 0
-2253 -2254 0
-2253 -2255 0
-2253 -2256 0
-2253 -2257 0
-2253 -2258 0
-2253 -2259 0
-2254 -2255 0
-2254 -2256 0
-2254 -2257 0
-2254 -2258 0
-2254 -2259 0
-2255 -2256 0
-2255 -2257 0
-2255 -2258 0
-2255 -2259 0
-2256 -2257 0
-2256 -2258 0
-2256 -2259 0
-2257 -2258 0
-2257 -2259 0
-2258 -2259 0
1 2 3 4 5 6 7 8 9 10 11 12 13 14 0
-1 -2 0
-1 -3 0
-1 -4 0
-1 -5 0
-1 -6 0
-1 -7 0
-1 -8 0
-1 -9 0
-1 -10 0
-1 -11 0
-1 -12 0
-1 -13 0
-1 -14 0
-2 -3 0
-2 -4 0
-2 -5 0
-2 -6 0
-2 -7 0
-2 -8 0
-2 -9 0
-2 -10 0
-2 -11 0
-2 -12 0
-2 -13 0
-2 -14 0
-3 -4 0
-3 -5 0
-3 -6 0
-3 -7 0
-3 -8 0
-3 -9 0
-3 -10 0
-3 -11 0
-3 -12 0
-3 -13 0
-3 -14 0
-4 -5 0
-4 -6 0
-4 -7 0
-4 -8 0
-4 -9 0
-4 -10 0
-4 -11 0
-4 -12 0
-4 -13 0
-4 -14 0
-5 -6 0
-5 -7 0
-5 -8 0
-5 -9 0
-5 -10 0
-5 -11 0
-5 -12 0
-5 -13 0
-5 -14 0
-6 -7 0
-6 -8 0
-6 -9 0
-6 -10 0
-6 -11 0
-6 -12 0
-6 -13 0
-6 -14 0
-7 -8 0
-7 -9 0
-7 -10 0
-7 -11 0
-7 -12 0
-7 -13 0
-7 -14 0
-8 -9 0
-8 -10 0
-8 -11 0
-8 -12 0
-8 -13 0
-8 -14 0
-9 -10 0
-9 -11 0
-9 -12 0
-9 -13 0
-9 -14 0
-10 -11 0
-10 -12 0
-10 -13 0
-10 -14 0
-11 -12 0
-11 -13 0
-11 -14 0
-12 -13 0
-12 -14 0
-13 -14 0
